c colouring generated by benchmark framework
p edge 300 21695
v 1 17
v 2 6
v 3 8
v 4 43
v 5 44
v 6 6
v 7 14
v 8 28
v 9 26
v 10 16
v 11 7
v 12 52
v 13 11
v 14 24
v 15 0
v 16 13
v 17 30
v 18 45
v 19 22
v 20 7
v 21 19
v 22 6
v 23 1
v 24 36
v 25 17
v 26 26
v 27 12
v 28 49
v 29 51
v 30 10
v 31 24
v 32 22
v 33 32
v 34 10
v 35 22
v 36 14
v 37 22
v 38 36
v 39 12
v 40 12
v 41 12
v 42 37
v 43 34
v 44 19
v 45 11
v 46 18
v 47 14
v 48 11
v 49 10
v 50 42
v 51 14
v 52 1
v 53 39
v 54 31
v 55 41
v 56 51
v 57 2
v 58 32
v 59 25
v 60 0
v 61 32
v 62 27
v 63 15
v 64 18
v 65 38
v 66 5
v 67 40
v 68 10
v 69 44
v 70 23
v 71 42
v 72 13
v 73 4
v 74 5
v 75 3
v 76 26
v 77 13
v 78 1
v 79 31
v 80 8
v 81 5
v 82 40
v 83 7
v 84 40
v 85 31
v 86 49
v 87 45
v 88 33
v 89 48
v 90 2
v 91 34
v 92 23
v 93 29
v 94 11
v 95 23
v 96 1
v 97 20
v 98 17
v 99 29
v 100 47
v 101 9
v 102 37
v 103 28
v 104 25
v 105 8
v 106 2
v 107 43
v 108 18
v 109 8
v 110 6
v 111 27
v 112 39
v 113 33
v 114 10
v 115 3
v 116 35
v 117 36
v 118 8
v 119 49
v 120 33
v 121 18
v 122 35
v 123 41
v 124 2
v 125 37
v 126 9
v 127 36
v 128 10
v 129 38
v 130 8
v 131 29
v 132 25
v 133 14
v 134 17
v 135 4
v 136 13
v 137 14
v 138 8
v 139 16
v 140 33
v 141 30
v 142 25
v 143 26
v 144 27
v 145 39
v 146 46
v 147 20
v 148 28
v 149 50
v 150 22
v 151 12
v 152 12
v 153 20
v 154 16
v 155 0
v 156 15
v 157 47
v 158 50
v 159 37
v 160 50
v 161 13
v 162 16
v 163 3
v 164 9
v 165 23
v 166 35
v 167 44
v 168 38
v 169 7
v 170 19
v 171 20
v 172 1
v 173 12
v 174 35
v 175 52
v 176 4
v 177 9
v 178 22
v 179 30
v 180 12
v 181 16
v 182 25
v 183 0
v 184 13
v 185 2
v 186 15
v 187 14
v 188 17
v 189 17
v 190 47
v 191 21
v 192 36
v 193 18
v 194 39
v 195 21
v 196 21
v 197 32
v 198 24
v 199 28
v 200 48
v 201 25
v 202 38
v 203 3
v 204 25
v 205 41
v 206 15
v 207 2
v 208 7
v 209 4
v 210 41
v 211 39
v 212 16
v 213 5
v 214 34
v 215 43
v 216 15
v 217 34
v 218 9
v 219 44
v 220 26
v 221 19
v 222 5
v 223 19
v 224 17
v 225 31
v 226 24
v 227 30
v 228 3
v 229 8
v 230 27
v 231 31
v 232 34
v 233 30
v 234 32
v 235 11
v 236 20
v 237 22
v 238 4
v 239 43
v 240 15
v 241 14
v 242 38
v 243 16
v 244 27
v 245 16
v 246 6
v 247 10
v 248 19
v 249 29
v 250 20
v 251 30
v 252 21
v 253 6
v 254 34
v 255 46
v 256 7
v 257 46
v 258 15
v 259 35
v 260 3
v 261 0
v 262 9
v 263 26
v 264 18
v 265 11
v 266 30
v 267 1
v 268 31
v 269 3
v 270 40
v 271 23
v 272 42
v 273 13
v 274 48
v 275 46
v 276 2
v 277 13
v 278 37
v 279 26
v 280 29
v 281 21
v 282 0
v 283 12
v 284 7
v 285 18
v 286 29
v 287 23
v 288 18
v 289 42
v 290 2
v 291 9
v 292 31
v 293 0
v 294 24
v 295 23
v 296 21
v 297 4
v 298 4
v 299 28
v 300 29
